# Homework 2 - Advanced LP & Network Flow Models
# Adv. Analytics and Metaheuristics
# Daniel Carpenter and Christopher Ferguson
# February 2022
# Problem 4

data;

# The demand to loop over
set DEMAND      := 1 2 3 4 5 6 7;
param demandAmounts := 
    1 5000 
    2 10000 
    3 25000 
    4 35000 
    5 45000 
    6 50000 
    7 55000;
